
Gurobi 11.0.3 (mac64[x86]) logging started Tue Apr  8 15:40:14 2025

Set parameter LogFile to value "Results/Conservative_experiment/sanity_check_v2.log"
Set parameter TimeLimit to value 84600
Set parameter Method to value 2
Set parameter Crossover to value 0
Gurobi Optimizer version 11.0.3 build v11.0.3rc0 (mac64[x86] - Darwin 23.4.0 23E214)

CPU model: Intel(R) Core(TM) i7-1060NG7 CPU @ 1.20GHz
Thread count: 4 physical cores, 8 logical processors, using up to 8 threads

Optimize a model with 3282720 rows, 3705248 columns and 108538544 nonzeros
Model fingerprint: 0xaa316423
Coefficient statistics:
  Matrix range     [2e-01, 3e+00]
  Objective range  [6e-05, 5e+00]
  Bounds range     [0e+00, 0e+00]
  RHS range        [4e+00, 1e+03]
Presolve removed 0 rows and 0 columns (presolve time = 21s) ...
Presolve removed 675600 rows and 781024 columns (presolve time = 33s) ...
Presolve removed 1314720 rows and 1982224 columns (presolve time = 35s) ...
Presolve removed 1685408 rows and 2103056 columns (presolve time = 42s) ...
Presolve removed 2115476 rows and 2533147 columns (presolve time = 46s) ...
Presolve removed 2409066 rows and 2637371 columns (presolve time = 50s) ...
Presolve removed 2525691 rows and 2688274 columns
Presolve time: 55.44s
Presolved: 757029 rows, 1016974 columns, 3920681 nonzeros
Ordering time: 0.04s

Barrier statistics:
 AA' NZ     : 1.957e+05
 Factor NZ  : 5.320e+05 (roughly 20 MB of memory)
 Factor Ops : 3.643e+07 (less than 1 second per iteration)
 Threads    : 4

                  Objective                Residual
Iter       Primal          Dual         Primal    Dual     Compl     Time
   0  -1.05088375e+06  1.34597822e+05  3.72e+03 7.66e+00  2.22e+03    57s
   1  -1.81339199e+06  9.55442455e+04  1.03e+03 1.39e+01  1.04e+03    57s
   2  -2.24626077e+06  4.53345818e+04  1.66e+02 3.06e+00  2.67e+02    57s
   3  -1.37830426e+06  7.66908873e+03  1.02e+01 3.37e-02  3.90e+01    57s
   4  -9.96542478e+04  1.86070268e+03  5.08e-01 1.46e-03  2.76e+00    57s
   5  -2.80932632e+04  6.81974862e+02  1.41e-01 7.44e-14  7.71e-01    57s
   6  -1.63395185e+03  5.55837940e+02  7.54e-03 4.49e-14  5.85e-02    57s
   7   2.92027866e+02  5.20736082e+02  4.76e-04 8.33e-14  6.09e-03    57s
   8   3.27138524e+02  4.03446744e+02  1.02e-04 1.93e-13  2.03e-03    57s
   9   3.60274357e+02  3.70014426e+02  1.97e-05 1.33e-13  2.59e-04    57s
  10   3.66315311e+02  3.66844652e+02  1.33e-06 1.14e-13  1.41e-05    57s
  11   3.66681205e+02  3.66740318e+02  1.58e-07 1.47e-13  1.58e-06    57s
  12   3.66730544e+02  3.66733129e+02  4.26e-09 4.93e-13  6.88e-08    57s
  13   3.66731996e+02  3.66732001e+02  3.06e-10 3.41e-13  1.29e-10    57s
  14   3.66732000e+02  3.66732000e+02  2.01e-11 3.76e-13  4.61e-16    57s

Barrier solved model in 14 iterations and 57.13 seconds (18.64 work units)
Optimal objective 3.66732000e+02

